c 17_4_checker.cnf
c
c field = 17
c formula set type = 4_checker
c
p cnf 5 18
30 
34 
36 
38 
-40 
31 
35 
37 
39 
-41 
34 
36 
38 
40 
-30 
35 
37 
39 
41 
-31 
34 
36 
38 
40 
-42 
35 
37 
39 
41 
-43 
2 
62 
92 
122 
-152 
3 
63 
93 
123 
-153 
62 
92 
122 
152 
-2 
63 
93 
123 
153 
-3 
62 
92 
122 
152 
-182 
63 
93 
123 
153 
-183 
0 
64 
96 
128 
-160 
1 
65 
97 
129 
-161 
64 
96 
128 
160 
-0 
65 
97 
129 
161 
-1 
64 
96 
128 
160 
-192 
65 
97 
129 
161 
-193 
